<instance format="XCSP3" type="CSP">
  <variables>
    <var id="x0"> 12..14 </var>
    <var id="x1"> 6 11 14 </var>
    <var id="x2"> 0 6 10 11 13 14 </var>
    <var id="x3"> 10 11 14 </var>
    <var id="x4"> 0 11..13 </var>
    <var id="x5"> 6 11 12 </var>
    <var id="x6"> 11..14 </var>
    <var id="x7"> 1 4 9 13 </var>
    <var id="x8"> 1 2 4 8 </var>
    <var id="x9"> 1 4 </var>
    <var id="x10"> 1 4 6 9 13 </var>
    <var id="x11"> 1 2 4 9 </var>
    <var id="x12"> 1 6 13 </var>
    <var id="x13"> 4 8 13 </var>
    <var id="x14"> 1 4 7 14 </var>
    <var id="x15"> 2 7 </var>
    <var id="x16"> 1 4 6 </var>
    <var id="x17"> 1 2 4 7 11 </var>
    <var id="x18"> 1 4 7 11 14 </var>
    <var id="x19"> 1 4 7 </var>
    <var id="x20"> 4 7 11 </var>
    <var id="x21"> 4 8 10 </var>
    <var id="x22"> 0 10 11 </var>
    <var id="x23"> 4 9 10 </var>
    <var id="x24"> 4 7 9 11 </var>
    <var id="x25"> 0 10 11 </var>
    <var id="x26"> 4 7 8 10 11 </var>
    <var id="x27"> 4 11 </var>
    <var id="x28"> 1 8 14 </var>
    <var id="x29"> 8 9 13 </var>
    <var id="x30"> 0 1 9 11 </var>
    <var id="x31"> 0 1 11 13 14 </var>
    <var id="x32"> 0 1 8 9 </var>
    <var id="x33"> 8 9 11 13 </var>
    <var id="x34"> 1 11 12 </var>
    <var id="x35"> 8 11..14 </var>
    <var id="x36"> 2 8 9 13 </var>
    <var id="x37"> 0 14 </var>
    <var id="x38"> 2 4 9 14 </var>
    <var id="x39"> 4 8 14 </var>
    <var id="x40"> 0 4 8 9 </var>
    <var id="x41"> 8 9 13 </var>
    <var id="x42"> 2 4 </var>
    <var id="x43"> 3 4 10 </var>
    <var id="x44"> 3..5 7 </var>
    <var id="x45"> 3 4 9 10 </var>
    <var id="x46"> 4 7 9 11 </var>
    <var id="x47"> 4 7 10 11 </var>
    <var id="x48"> 4 7 9 10 </var>
    <var id="x49"> 4 5 11 </var>
    <var id="x50"> 1 3..5 7 </var>
    <var id="x51"> 3 7 9 </var>
    <var id="x52"> 1 3 4 9 </var>
    <var id="x53"> 4 7 9 11 </var>
    <var id="x54"> 1 3 11 </var>
    <var id="x55"> 4 7 9 11 </var>
    <var id="x56"> 7 9 11 </var>
    <var id="x57"> 1 4 10 </var>
    <var id="x58"> 0 5 10 11 </var>
    <var id="x59"> 1 4 10 </var>
    <var id="x60"> 0 1 4 7 11 </var>
    <var id="x61"> 1 4 7 10 11 </var>
    <var id="x62"> 0 4 7 11 </var>
    <var id="x63"> 7 10 11 </var>
    <var id="x64"> 1 4 7 9 12 14 </var>
    <var id="x65"> 1 4 7 12 </var>
    <var id="x66"> 7 9 10 </var>
    <var id="x67"> 10 12 14 </var>
    <var id="x68"> 1 4 7 9 </var>
    <var id="x69"> 1 10 14 </var>
    <var id="x70"> 1 4 7 9 10 </var>
    <var id="x71"> 1 4 7 13 </var>
    <var id="x72"> 6 10 11 </var>
    <var id="x73"> 1 4 7 11 </var>
    <var id="x74"> 1 4 7 10 </var>
    <var id="x75"> 6 7 10 11 13 </var>
    <var id="x76"> 1 4 6 11 </var>
    <var id="x77"> 4 11 13 </var>
    <var id="x78"> 1 4 7 12 </var>
    <var id="x79"> 1 3 4 7 12 </var>
    <var id="x80"> 2 4 6 7 </var>
    <var id="x81"> 1 3 6 </var>
    <var id="x82"> 6 7 </var>
    <var id="x83"> 1..4 6 12 </var>
    <var id="x84"> 4 12 </var>
    <var id="x85"> 3 4 8 10 14 </var>
    <var id="x86"> 4 6 14 </var>
    <var id="x87"> 4 </var>
    <var id="x88"> 3 6 10 14 </var>
    <var id="x89"> 4 12 </var>
    <var id="x90"> 6 8 10 </var>
    <var id="x91"> 4 8 12 14 </var>
    <var id="x92"> 0 3 7 12 </var>
    <var id="x93"> 3 7 10 13 </var>
    <var id="x94"> 0 10 12 14 </var>
    <var id="x95"> 3 10 13 </var>
    <var id="x96"> 0 7 10 </var>
    <var id="x97"> 0 7 12 13 </var>
    <var id="x98"> 3 12 </var>
    <var id="x99"> 1 9 13 </var>
    <var id="x100"> 1..3 8 </var>
    <var id="x101"> 1 3 </var>
    <var id="x102"> 2 3 8 9 13 </var>
    <var id="x103"> 11 </var>
    <var id="x104"> 1 8 11 </var>
    <var id="x105"> 9 11 13 </var>
  </variables>
  <constraints>
    <group>
      <allDifferent> %... </allDifferent>
      <args> x0 x1 x2 x3 x4 x5 x6 </args>
      <args> x7 x8 x9 x10 x11 x12 x13 </args>
      <args> x14 x15 x16 x17 x18 x19 x20 </args>
      <args> x21 x22 x23 x24 x25 x26 x27 </args>
      <args> x28 x29 x30 x31 x32 x33 x34 x35 </args>
      <args> x36 x37 x38 x39 x40 x41 x42 </args>
      <args> x43 x44 x45 x46 x47 x48 x49 </args>
      <args> x50 x51 x52 x53 x54 x55 x56 </args>
      <args> x57 x58 x59 x60 x61 x62 x63 </args>
      <args> x64 x65 x66 x67 x68 x69 x70 </args>
      <args> x71 x72 x73 x74 x75 x76 x77 </args>
      <args> x78 x79 x80 x81 x82 x83 x84 </args>
      <args> x85 x86 x87 x88 x89 x90 x91 </args>
      <args> x92 x93 x94 x95 x96 x97 x98 </args>
      <args> x99 x100 x101 x102 x103 x104 x105 </args>
      <args> x0 x7 x14 x64 x71 x78 x99 </args>
      <args> x8 x21 x28 x43 x57 x85 x100 </args>
      <args> x9 x44 x50 x65 x79 x92 x101 </args>
      <args> x15 x29 x36 x51 x66 x93 x102 </args>
      <args> x22 x37 x58 x67 x72 x94 x103 </args>
      <args> x10 x16 x23 x45 x52 x59 x95 </args>
      <args> x1 x24 x38 x46 x53 x80 x86 </args>
      <args> x11 x17 x30 x60 x68 x73 x87 </args>
      <args> x2 x12 x25 x31 x54 x69 x81 x88 </args>
      <args> x3 x18 x26 x39 x47 x61 x104 </args>
      <args> x19 x32 x40 x48 x70 x74 x96 </args>
      <args> x4 x20 x55 x62 x89 x97 x105 </args>
      <args> x33 x41 x56 x63 x75 x82 x90 </args>
      <args> x5 x27 x34 x42 x76 x83 x98 </args>
      <args> x6 x13 x35 x49 x77 x84 x91 </args>
    </group>
  </constraints>
</instance>

